nNurses = 119;
nHours = 38;
minHours = 5;
maxHours = 12;
maxConsec = 6;
maxPresence = 24;
demand = [32, 32, 34, 31, 30, 25, 24, 20, 23, 21, 20, 18, 15, 16, 13, 14, 12, 11, 6, 9, 14, 18, 21, 17, 21, 19, 20, 18, 17, 14, 15, 17, 13, 11, 9, 10, 14, 16];
